(set-logic ALL)
(declare-fun var0 () String)
(assert (str.in_re var0 (re.++ (re.* (re.+ (str.to_re "00"))) (re.++ (re.+ (re.+ (str.to_re "111"))) (re.++ (re.* (re.+ (str.to_re "222"))) (re.++ (re.union (re.+ (str.to_re "3")) (re.+ (str.to_re "444"))) (re.++ (re.union (re.+ (str.to_re "5")) (re.+ (str.to_re "6"))) (re.++ (re.+ (re.+ (str.to_re "777"))) (re.++ (re.* (re.* (str.to_re "8"))) (re.++ (re.union (re.* (str.to_re "99")) (re.* (str.to_re "a"))) (re.++ (re.* (re.* (str.to_re "b"))) (re.union (re.* (str.to_re "cc")) (re.* (str.to_re "dd"))))))))))))))
(assert (<= 426 (str.len var0)))
(check-sat)